\ENCODING=ISO-8859-1
\Problem name: ilog.cplex

Minimize
 obj1: - x_0_1 - x_0_2 - x_0_3 - x_0_5 - x_0_7 - x_0_8 - x_0_9 - x_0_10
       + x_0_11 - x_16_17 + x_0_18 - x_16_18 - x_16_19 + x_0_20 - x_16_20
       - x_16_21 + x_0_23 + x_0_25 + x_0_26 + x_16_27 + x_0_28 + x_16_30
       + x_0_31 - x_16_31 - x_1_3 + x_1_4 - x_1_5 - x_1_7 - x_1_8 - x_1_9
       - x_1_10 + x_1_16 - x_17_19 - x_17_20 - x_17_21 - x_1_24 - x_1_25
       + x_1_26 + x_17_26 + x_17_28 + x_1_29 - x_17_31 - x_2_3 - x_2_4 - x_2_5
       + x_2_6 - x_2_7 - x_2_8 - x_2_10 + x_2_12 + x_2_14 + x_2_15 + x_2_16
       + x_2_18 + x_2_19 - x_18_19 + x_2_20 - x_18_20 - x_18_21 + x_18_22
       + x_2_24 - x_18_24 + x_18_26 + x_2_28 - x_2_29 + x_18_31 - x_3_5 - x_3_6
       + x_3_8 - x_3_10 + x_3_11 + x_3_16 - x_3_19 + x_3_20 - x_19_21 + x_3_22
       + x_3_23 + x_19_26 + x_3_29 + x_3_31 - x_4_5 - x_4_6 - x_4_7 - x_4_9
       - x_4_10 + x_4_11 - x_4_17 - x_4_20 + x_4_21 + x_20_21 + x_20_22
       + x_4_24 + x_4_25 - x_4_28 + x_20_28 + x_20_31 - x_5_6 - x_5_7 - x_5_8
       - x_5_9 + x_5_10 + x_5_12 + x_5_13 - x_5_18 - x_5_20 + x_5_21 + x_5_22
       + x_5_26 + x_21_26 + x_21_30 - x_6_8 - x_6_10 + x_6_13 + x_6_21 + x_6_22
       + x_22_23 - x_22_24 - x_22_25 + x_6_26 + x_22_26 - x_22_27 + x_6_28
       - x_22_28 + x_22_29 - x_22_30 + x_6_31 - x_7_8 + x_7_9 + x_7_10 + x_7_11
       + x_7_13 - x_7_14 + x_7_16 + x_7_18 - x_7_23 + x_23_24 + x_7_25
       - x_23_25 + x_7_27 - x_23_27 - x_23_28 - x_23_29 - x_23_30 + x_7_31
       - x_23_31 - x_8_9 - x_8_10 + x_8_14 + x_8_16 + x_8_24 + x_8_25 - x_24_25
       + x_8_26 - x_24_27 + x_8_28 - x_24_29 - x_24_30 + x_24_31 + x_9_11
       - x_9_14 + x_9_15 + x_9_17 - x_9_18 - x_25_26 - x_25_27 + x_25_28
       + x_9_29 - x_25_30 + x_10_11 + x_10_12 + x_10_15 + x_10_16 + x_10_17
       - x_10_18 - x_10_22 - x_10_23 + x_10_27 - x_10_28 - x_26_28 + x_10_29
       - x_26_29 - x_26_30 + x_10_31 + x_26_31 - x_11_13 - x_11_15 - x_11_16
       - x_11_17 - x_11_19 - x_11_20 - x_11_21 + x_11_22 + x_11_23 + x_11_25
       + x_11_26 - x_27_28 - x_11_29 + x_11_30 - x_27_30 - x_27_31 - x_12_13
       - x_12_16 + x_12_17 - x_12_18 - x_12_21 + x_12_26 + x_12_27 + x_12_28
       - x_28_29 - x_28_31 - x_13_14 - x_13_15 - x_13_16 - x_13_17 - x_13_18
       - x_13_19 - x_13_20 + x_13_22 + x_13_26 + x_13_27 + x_13_28 + x_13_30
       - x_29_30 + x_14_15 - x_14_16 - x_14_17 + x_14_18 - x_14_19 - x_14_20
       - x_14_21 - x_14_25 + x_14_31 - x_30_31 - x_15_16 + x_15_17 + x_15_18
       - x_15_20 + x_15_21 + x_15_23 - x_15_26 - x_15_28 + 126
Subject To
 c1:   x_7_8 + x_7_14 - x_8_14 <= 1
 c2:   x_16_18 + x_5_8 + x_5_18 - x_8_16 <= 2
 c3:   x_0_5 - x_0_18 + x_5_18 <= 1
 c4:   x_0_5 - x_0_20 + x_5_20 <= 1
 c5:   x_0_7 - x_0_23 + x_7_23 <= 1
 c6:   x_1_8 + x_1_24 - x_8_24 <= 1
 c7:   x_0_1 - x_0_25 + x_1_25 <= 1
 c8:   x_1_8 + x_1_25 - x_8_25 <= 1
 c9:   x_0_1 - x_0_26 + x_1_25 + x_25_26 <= 2
 c10:  x_1_8 + x_1_25 - x_8_26 + x_25_26 <= 2
 c11:  - x_16_27 + x_16_31 + x_27_31 <= 1
 c12:  x_0_10 - x_0_28 + x_10_28 <= 1
 c13:  x_8_10 - x_8_28 + x_10_28 <= 1
 c14:  - x_16_30 + x_16_31 + x_30_31 <= 1
 c15:  x_0_7 - x_0_31 + x_7_23 + x_23_31 <= 2
 c16:  x_24_27 - x_24_31 + x_27_31 <= 1
 c17:  - x_1_4 + x_1_5 + x_4_5 <= 1
 c18:  x_16_18 - x_9_11 + x_9_18 + x_11_16 <= 2
 c19:  x_16_19 + x_1_3 - x_1_16 + x_3_19 <= 2
 c20:  x_4_9 + x_4_17 - x_9_17 <= 1
 c21:  x_1_25 - x_1_26 + x_25_26 <= 1
 c22:  x_16_17 - x_17_26 + x_15_16 + x_15_26 <= 2
 c23:  x_22_25 + x_22_28 - x_25_28 <= 1
 c24:  x_1_24 - x_1_29 + x_24_29 <= 1
 c25:  x_2_3 - x_2_6 + x_3_6 <= 1
 c26:  x_16_18 - x_10_11 + x_10_18 + x_11_16 <= 2
 c27:  x_2_5 - x_2_12 + x_5_18 + x_12_18 <= 2
 c28:  - x_10_12 + x_10_18 + x_12_18 <= 1
 c29:  x_2_7 - x_2_14 + x_7_14 <= 1
 c30:  - x_10_15 + x_10_28 + x_15_28 <= 1
 c31:  x_16_19 + x_2_3 - x_2_16 + x_3_19 <= 2
 c32:  x_16_18 - x_10_16 + x_10_18 <= 1
 c33:  x_4_10 + x_4_17 - x_10_17 <= 1
 c34:  x_2_5 - x_2_18 + x_5_18 <= 1
 c35:  x_2_3 - x_2_19 + x_3_19 <= 1
 c36:  x_2_4 - x_2_20 + x_4_20 <= 1
 c37:  - x_2_24 + x_2_29 + x_24_29 <= 1
 c38:  x_16_18 - x_18_26 + x_15_16 + x_15_26 <= 2
 c39:  x_22_27 + x_10_22 - x_10_27 <= 1
 c40:  x_2_4 - x_2_28 + x_4_28 <= 1
 c41:  x_23_29 + x_10_23 - x_10_29 <= 1
 c42:  x_16_18 + x_16_31 - x_18_31 <= 1
 c43:  x_23_31 + x_10_23 - x_10_31 <= 1
 c44:  x_26_28 - x_26_31 + x_28_31 <= 1
 c45:  x_0_3 + x_0_8 - x_3_8 <= 1
 c46:  - x_3_11 + x_3_19 + x_11_19 <= 1
 c47:  x_16_19 - x_3_16 + x_3_19 <= 1
 c48:  x_3_5 - x_3_20 + x_5_20 <= 1
 c49:  x_3_10 - x_3_22 + x_10_22 <= 1
 c50:  x_22_24 + x_24_29 - x_11_22 + x_11_29 <= 2
 c51:  x_3_10 - x_3_23 + x_10_23 <= 1
 c52:  x_23_29 - x_11_23 + x_11_29 <= 1
 c53:  x_11_16 - x_11_25 + x_14_16 + x_14_25 <= 2
 c54:  x_16_19 - x_19_26 + x_15_16 + x_15_26 <= 2
 c55:  x_26_29 - x_11_26 + x_11_29 <= 1
 c56:  x_2_3 + x_2_29 - x_3_29 <= 1
 c57:  x_11_29 - x_11_30 + x_29_30 <= 1
 c58:  - x_4_11 + x_4_17 + x_11_17 <= 1
 c59:  x_16_17 + x_12_16 - x_12_17 <= 1
 c60:  x_17_21 + x_4_17 - x_4_21 <= 1
 c61:  x_16_20 + x_16_21 - x_20_21 <= 1
 c62:  x_2_4 + x_2_29 - x_4_24 + x_24_29 <= 2
 c63:  x_12_16 - x_12_26 + x_15_16 + x_15_26 <= 2
 c64:  x_16_31 + x_27_31 + x_12_16 - x_12_27 <= 2
 c65:  x_12_16 - x_12_28 + x_15_16 + x_15_28 <= 2
 c66:  x_16_20 + x_16_31 - x_20_31 <= 1
 c67:  - x_5_12 + x_5_18 + x_12_18 <= 1
 c68:  - x_5_13 + x_5_18 + x_13_18 <= 1
 c69:  x_18_21 + x_5_18 - x_5_21 <= 1
 c70:  x_16_21 - x_21_26 + x_15_16 + x_15_26 <= 2
 c71:  x_13_15 - x_13_26 + x_15_26 <= 1
 c72:  x_16_31 + x_27_31 + x_13_16 - x_13_27 <= 2
 c73:  x_13_15 - x_13_28 + x_15_28 <= 1
 c74:  x_16_21 + x_16_31 - x_21_30 + x_30_31 <= 2
 c75:  x_16_31 + x_13_16 - x_13_30 + x_30_31 <= 2
 c76:  x_3_6 + x_3_19 - x_6_13 + x_13_19 <= 2
 c77:  - x_14_15 + x_14_16 + x_15_16 <= 1
 c78:  x_16_18 + x_14_16 - x_14_18 <= 1
 c79:  x_3_6 + x_3_19 + x_19_21 - x_6_21 <= 2
 c80:  x_6_10 - x_6_22 + x_10_22 <= 1
 c81:  x_4_6 + x_4_28 - x_6_26 + x_26_28 <= 2
 c82:  x_22_25 - x_22_26 + x_25_26 <= 1
 c83:  x_4_6 + x_4_28 - x_6_28 <= 1
 c84:  x_22_24 - x_22_29 + x_24_29 <= 1
 c85:  x_16_31 + x_14_16 - x_14_31 <= 1
 c86:  x_0_7 + x_0_9 - x_7_9 <= 1
 c87:  x_0_7 + x_0_10 - x_7_10 <= 1
 c88:  - x_7_13 + x_7_14 + x_13_14 <= 1
 c89:  x_7_14 - x_7_16 + x_14_16 <= 1
 c90:  x_16_17 + x_15_16 - x_15_17 <= 1
 c91:  x_5_7 + x_5_18 - x_7_18 <= 1
 c92:  x_16_18 + x_15_16 - x_15_18 <= 1
 c93:  x_16_21 + x_15_16 - x_15_21 <= 1
 c94:  x_23_28 - x_15_23 + x_15_28 <= 1
 c95:  - x_23_24 + x_23_25 + x_24_25 <= 1
 c96:  x_1_7 + x_1_25 - x_7_25 <= 1
 c97:  x_7_23 - x_7_27 + x_23_27 <= 1
 c98:  x_7_23 - x_7_31 + x_23_31 <= 1
 c99:  x_0_1 - x_0_3 + x_1_3 <= 1
 c100: x_0_1 - x_0_7 + x_1_7 <= 1
 c101: x_8_9 - x_8_14 + x_9_14 <= 1
 c102: x_16_18 + x_8_9 - x_8_16 + x_9_18 <= 2
 c103: - x_16_17 + x_11_16 + x_11_17 <= 1
 c104: x_0_9 - x_0_18 + x_9_18 <= 1
 c105: x_0_9 - x_0_20 + x_18_20 + x_9_18 <= 2
 c106: x_0_2 - x_0_23 + x_2_29 + x_23_29 <= 2
 c107: x_0_2 - x_0_26 + x_2_29 + x_26_29 <= 2
 c108: x_2_8 + x_2_29 - x_8_26 + x_26_29 <= 2
 c109: - x_16_27 + x_25_27 + x_14_16 + x_14_25 <= 2
 c110: x_0_2 - x_0_28 + x_2_29 + x_28_29 <= 2
 c111: x_2_8 + x_2_29 - x_8_28 + x_28_29 <= 2
 c112: x_23_24 + x_23_29 - x_24_29 <= 1
 c113: - x_16_30 + x_25_30 + x_14_16 + x_14_25 <= 2
 c114: x_0_2 - x_0_31 + x_2_29 + x_26_29 + x_26_31 <= 3
 c115: - x_16_31 + x_17_31 + x_11_16 + x_11_17 <= 2
 c116: x_23_24 + x_23_31 - x_24_31 <= 1
 c117: x_16_18 + x_1_9 - x_1_16 + x_9_18 <= 2
 c118: x_9_14 - x_9_17 + x_14_17 <= 1
 c119: x_0_1 + x_0_2 - x_1_26 + x_2_29 + x_26_29 <= 3
 c120: - x_17_26 + x_17_31 + x_26_31 <= 1
 c121: - x_17_28 + x_17_31 + x_28_31 <= 1
 c122: x_23_25 + x_23_28 - x_25_28 <= 1
 c123: x_0_1 + x_0_2 - x_1_29 + x_2_29 <= 2
 c124: x_0_2 + x_0_9 + x_2_29 - x_9_29 <= 2
 c125: - x_2_3 + x_2_5 + x_3_5 <= 1
 c126: x_2_4 - x_2_6 + x_4_6 <= 1
 c127: x_0_2 + x_0_9 - x_2_12 + x_9_18 + x_12_18 <= 3
 c128: x_0_9 + x_0_10 + x_9_18 - x_10_12 + x_12_18 <= 3
 c129: x_0_2 + x_0_9 - x_2_14 + x_9_14 <= 2
 c130: - x_2_15 + x_2_29 + x_26_29 + x_15_26 <= 2
 c131: x_2_10 + x_2_29 - x_10_15 + x_26_29 + x_15_26 <= 3
 c132: x_0_2 + x_0_9 + x_16_18 - x_2_16 + x_9_18 <= 3
 c133: x_0_9 + x_0_10 + x_16_18 + x_9_18 - x_10_16 <= 3
 c134: x_0_9 + x_0_10 + x_9_14 - x_10_17 + x_14_17 <= 3
 c135: x_0_2 + x_0_9 - x_2_18 + x_9_18 <= 2
 c136: x_0_9 + x_0_10 + x_9_18 - x_10_18 <= 2
 c137: x_0_2 + x_0_9 - x_2_19 + x_18_19 + x_9_18 <= 3
 c138: x_0_2 + x_0_9 - x_2_20 + x_18_20 + x_9_18 <= 3
 c139: - x_18_22 + x_18_24 + x_22_24 <= 1
 c140: x_2_10 + x_2_29 + x_22_28 - x_10_22 + x_28_29 <= 3
 c141: x_2_10 + x_2_29 + x_23_29 - x_10_23 <= 2
 c142: - x_2_24 + x_2_29 + x_23_24 + x_23_29 <= 2
 c143: x_2_10 + x_2_29 - x_10_27 + x_27_28 + x_28_29 <= 3
 c144: - x_2_28 + x_2_29 + x_28_29 <= 1
 c145: x_2_10 + x_2_29 - x_10_28 + x_28_29 <= 2
 c146: x_2_10 + x_2_29 - x_10_29 <= 1
 c147: x_17_31 - x_18_31 + x_13_17 + x_13_18 <= 2
 c148: x_2_10 + x_2_29 + x_26_29 - x_10_31 + x_26_31 <= 3
 c149: x_1_3 + x_1_8 - x_3_8 <= 1
 c150: x_16_18 + x_1_3 + x_1_9 - x_3_16 + x_9_18 <= 3
 c151: x_1_3 + x_1_9 + x_18_19 - x_3_19 + x_9_18 <= 3
 c152: x_1_3 + x_1_9 + x_18_20 - x_3_20 + x_9_18 <= 3
 c153: x_2_5 + x_2_29 + x_3_5 - x_3_23 + x_23_29 <= 3
 c154: x_17_31 + x_23_31 + x_11_17 - x_11_23 <= 2
 c155: x_11_15 - x_11_26 + x_15_26 <= 1
 c156: x_2_5 + x_2_29 + x_3_5 - x_3_29 <= 2
 c157: x_26_29 + x_11_15 - x_11_29 + x_15_26 <= 2
 c158: x_17_31 + x_11_17 - x_11_30 + x_30_31 <= 2
 c159: x_23_27 + x_23_31 - x_27_31 <= 1
 c160: x_4_9 - x_4_17 + x_9_14 + x_14_17 <= 2
 c161: x_17_21 - x_12_17 + x_12_21 <= 1
 c162: x_18_20 + x_4_9 - x_4_20 + x_9_18 <= 2
 c163: x_18_21 + x_4_9 - x_4_21 + x_9_18 <= 2
 c164: x_18_20 + x_18_24 - x_20_22 + x_22_24 <= 2
 c165: x_18_24 + x_24_27 + x_12_18 - x_12_27 <= 2
 c166: x_2_4 + x_2_29 - x_4_28 + x_28_29 <= 2
 c167: x_17_20 + x_17_31 - x_20_28 + x_28_31 <= 2
 c168: x_17_20 + x_17_31 - x_20_31 <= 1
 c169: x_0_5 + x_0_10 - x_5_10 <= 1
 c170: x_5_9 - x_5_12 + x_9_18 + x_12_18 <= 2
 c171: x_5_9 - x_5_13 + x_9_18 + x_13_18 <= 2
 c172: x_5_9 - x_5_18 + x_9_18 <= 1
 c173: x_18_20 + x_5_9 - x_5_20 + x_9_18 <= 2
 c174: x_18_21 + x_5_9 - x_5_21 + x_9_18 <= 2
 c175: x_2_5 + x_2_29 - x_5_22 + x_22_28 + x_28_29 <= 3
 c176: x_18_24 + x_22_24 + x_13_18 - x_13_22 <= 2
 c177: x_2_5 + x_2_29 - x_5_26 + x_26_29 <= 2
 c178: x_18_24 + x_24_27 + x_13_18 - x_13_27 <= 2
 c179: x_17_31 + x_28_31 + x_13_17 - x_13_28 <= 2
 c180: x_17_21 + x_17_31 - x_21_30 + x_30_31 <= 2
 c181: x_17_31 + x_13_17 - x_13_30 + x_30_31 <= 2
 c182: x_4_6 + x_4_9 - x_6_13 + x_9_18 + x_13_18 <= 3
 c183: x_18_21 + x_4_6 + x_4_9 - x_6_21 + x_9_18 <= 3
 c184: x_2_4 + x_2_29 + x_4_6 - x_6_22 + x_22_28 + x_28_29 <= 4
 c185: - x_22_23 + x_22_24 + x_23_24 <= 1
 c186: x_22_24 - x_22_25 + x_24_25 <= 1
 c187: x_2_4 + x_2_29 + x_4_6 - x_6_26 + x_26_29 <= 3
 c188: - x_22_26 + x_22_28 + x_26_28 <= 1
 c189: x_2_4 + x_2_29 + x_4_6 - x_6_28 + x_28_29 <= 3
 c190: x_22_28 - x_22_29 + x_28_29 <= 1
 c191: x_2_4 + x_2_29 + x_4_6 - x_6_31 + x_26_29 + x_26_31 <= 4
 c192: x_17_31 + x_14_17 - x_14_31 <= 1
 c193: x_1_7 + x_1_9 - x_7_9 <= 1
 c194: x_1_7 + x_1_10 - x_7_10 <= 1
 c195: x_1_7 + x_1_9 - x_7_13 + x_9_18 + x_13_18 <= 3
 c196: x_1_7 + x_1_9 - x_7_14 + x_9_14 <= 2
 c197: x_16_18 + x_1_7 + x_1_9 - x_7_16 + x_9_18 <= 3
 c198: x_17_20 - x_15_17 + x_15_20 <= 1
 c199: x_1_7 + x_1_9 - x_7_18 + x_9_18 <= 2
 c200: x_2_7 + x_2_29 - x_7_23 + x_23_29 <= 2
 c201: x_23_25 + x_25_26 - x_15_23 + x_15_26 <= 2
 c202: x_2_7 + x_2_29 - x_7_27 + x_27_28 + x_28_29 <= 3
 c203: x_26_28 + x_15_26 - x_15_28 <= 1
 c204: x_2_7 + x_2_29 - x_7_31 + x_26_29 + x_26_31 <= 3
 c205: x_0_1 - x_0_9 + x_1_9 <= 1
 c206: x_0_1 - x_0_10 + x_1_10 <= 1
 c207: x_0_1 - x_0_11 + x_1_10 + x_10_18 + x_11_13 + x_13_18 <= 4
 c208: x_8_10 - x_8_14 + x_10_18 + x_13_14 + x_13_18 <= 3
 c209: x_8_10 - x_8_16 + x_10_18 + x_13_16 + x_13_18 <= 3
 c210: x_0_1 - x_0_18 + x_1_10 + x_10_18 <= 2
 c211: - x_16_18 + x_13_16 + x_13_18 <= 1
 c212: x_0_1 - x_0_20 + x_1_10 + x_18_20 + x_10_18 <= 3
 c213: - x_16_21 + x_11_16 + x_11_21 <= 1
 c214: - x_16_27 + x_25_27 + x_13_14 + x_13_16 + x_14_25 <= 3
 c215: x_24_25 - x_24_27 + x_25_27 <= 1
 c216: - x_16_30 + x_18_24 + x_24_30 + x_13_16 + x_13_18 <= 3
 c217: - x_16_31 + x_18_24 + x_24_30 + x_13_16 + x_13_18 + x_30_31 <= 4
 c218: x_24_30 - x_24_31 + x_30_31 <= 1
 c219: x_0_1 + x_0_7 - x_1_7 <= 1
 c220: x_8_9 + x_8_10 - x_9_11 + x_10_18 + x_11_13 + x_13_18 <= 4
 c221: x_8_9 + x_8_10 - x_9_14 + x_10_18 + x_13_14 + x_13_18 <= 4
 c222: x_1_10 - x_1_16 + x_10_18 + x_13_16 + x_13_18 <= 3
 c223: x_8_9 + x_8_10 - x_9_17 + x_10_18 + x_13_17 + x_13_18 <= 4
 c224: x_8_9 + x_8_10 - x_9_18 + x_10_18 <= 2
 c225: - x_17_26 + x_25_26 + x_14_17 + x_14_25 <= 2
 c226: - x_17_28 + x_25_27 + x_27_28 + x_14_17 + x_14_25 <= 3
 c227: x_25_27 - x_25_28 + x_27_28 <= 1
 c228: - x_17_31 + x_25_27 + x_27_31 + x_14_17 + x_14_25 <= 3
 c229: - x_10_11 + x_10_18 + x_11_13 + x_13_18 <= 2
 c230: x_2_10 - x_2_12 + x_10_18 + x_12_13 + x_13_18 <= 3
 c231: - x_10_12 + x_10_18 + x_12_13 + x_13_18 <= 2
 c232: x_2_10 - x_2_14 + x_10_18 + x_13_14 + x_13_18 <= 3
 c233: x_2_10 - x_2_16 + x_10_18 + x_13_16 + x_13_18 <= 3
 c234: - x_10_16 + x_10_18 + x_13_16 + x_13_18 <= 2
 c235: - x_10_17 + x_10_18 + x_13_17 + x_13_18 <= 2
 c236: x_2_10 - x_2_18 + x_10_18 <= 1
 c237: x_2_10 - x_2_19 + x_18_19 + x_10_18 <= 2
 c238: x_2_10 - x_2_20 + x_18_20 + x_10_18 <= 2
 c239: - x_18_22 + x_18_24 + x_22_29 + x_24_29 <= 2
 c240: x_18_24 - x_18_26 + x_24_25 + x_25_26 <= 2
 c241: - x_26_28 + x_26_29 + x_28_29 <= 1
 c242: x_18_24 - x_18_31 + x_24_30 + x_30_31 <= 2
 c243: x_26_30 - x_26_31 + x_30_31 <= 1
 c244: x_3_10 - x_3_11 + x_10_18 + x_11_13 + x_13_18 <= 3
 c245: x_3_10 - x_3_16 + x_10_18 + x_13_16 + x_13_18 <= 3
 c246: x_18_19 + x_3_10 - x_3_19 + x_10_18 <= 2
 c247: x_18_20 + x_3_10 - x_3_20 + x_10_18 <= 2
 c248: x_22_27 + x_25_27 + x_11_17 - x_11_22 + x_14_17 + x_14_25 <= 4
 c249: x_23_27 + x_25_27 + x_11_17 - x_11_23 + x_14_17 + x_14_25 <= 4
 c250: x_11_17 - x_11_25 + x_14_17 + x_14_25 <= 2
 c251: - x_19_26 + x_25_26 + x_14_19 + x_14_25 <= 2
 c252: x_25_26 + x_11_17 - x_11_26 + x_14_17 + x_14_25 <= 3
 c253: x_18_19 + x_18_24 + x_24_29 + x_11_19 - x_11_29 <= 3
 c254: x_25_30 + x_11_17 - x_11_30 + x_14_17 + x_14_25 <= 3
 c255: x_4_10 - x_4_11 + x_10_18 + x_11_13 + x_13_18 <= 3
 c256: x_4_10 - x_4_17 + x_10_18 + x_13_17 + x_13_18 <= 3
 c257: x_18_21 - x_12_18 + x_12_21 <= 1
 c258: x_18_20 + x_4_10 - x_4_20 + x_10_18 <= 2
 c259: x_18_21 + x_4_10 - x_4_21 + x_10_18 <= 2
 c260: x_17_20 + x_17_21 - x_20_21 <= 1
 c261: x_18_20 + x_18_24 - x_20_22 + x_22_29 + x_24_29 <= 3
 c262: x_25_26 + x_12_17 - x_12_26 + x_14_17 + x_14_25 <= 3
 c263: x_25_27 + x_12_17 - x_12_27 + x_14_17 + x_14_25 <= 3
 c264: x_18_20 + x_18_24 - x_20_28 + x_24_29 + x_28_29 <= 3
 c265: x_25_27 + x_27_28 + x_12_17 - x_12_28 + x_14_17 + x_14_25 <= 4
 c266: x_18_20 + x_18_24 - x_20_31 + x_24_30 + x_30_31 <= 3
 c267: x_1_5 + x_1_10 - x_5_10 <= 1
 c268: x_1_5 + x_1_10 - x_5_12 + x_10_18 + x_12_13 + x_13_18 <= 4
 c269: x_1_5 + x_1_10 - x_5_13 + x_10_18 + x_13_18 <= 3
 c270: x_1_5 + x_1_10 - x_5_18 + x_10_18 <= 2
 c271: x_1_5 + x_1_10 + x_18_20 - x_5_20 + x_10_18 <= 3
 c272: x_1_5 + x_1_10 + x_18_21 - x_5_21 + x_10_18 <= 3
 c273: x_18_24 + x_22_29 + x_24_29 + x_13_18 - x_13_22 <= 3
 c274: - x_21_26 + x_25_26 + x_14_21 + x_14_25 <= 2
 c275: x_25_26 + x_13_14 - x_13_26 + x_14_25 <= 2
 c276: x_25_27 + x_13_14 - x_13_27 + x_14_25 <= 2
 c277: x_18_24 + x_24_29 + x_28_29 + x_13_18 - x_13_28 <= 3
 c278: x_18_21 + x_18_24 - x_21_30 + x_24_30 <= 2
 c279: x_18_24 + x_24_30 + x_13_18 - x_13_30 <= 2
 c280: x_6_10 - x_6_13 + x_10_18 + x_13_18 <= 2
 c281: - x_14_15 + x_14_17 + x_15_17 <= 1
 c282: x_16_17 - x_14_16 + x_14_17 <= 1
 c283: x_18_19 - x_14_18 + x_14_19 <= 1
 c284: x_18_21 + x_6_10 - x_6_21 + x_10_18 <= 2
 c285: - x_22_23 + x_22_27 + x_23_27 <= 1
 c286: - x_22_24 + x_22_29 + x_24_29 <= 1
 c287: - x_22_25 + x_22_27 + x_25_27 <= 1
 c288: - x_22_26 + x_22_29 + x_26_29 <= 1
 c289: x_25_27 + x_27_31 + x_14_25 - x_14_31 <= 2
 c290: x_4_7 + x_4_9 - x_7_9 <= 1
 c291: x_2_7 + x_2_10 - x_7_10 <= 1
 c292: x_2_7 + x_2_10 - x_7_11 + x_10_18 + x_11_13 + x_13_18 <= 4
 c293: x_2_7 + x_2_10 - x_7_13 + x_10_18 + x_13_18 <= 3
 c294: x_2_7 + x_2_10 - x_7_14 + x_10_18 + x_13_14 + x_13_18 <= 4
 c295: x_2_7 + x_2_10 - x_7_16 + x_10_18 + x_13_16 + x_13_18 <= 4
 c296: x_2_7 + x_2_10 - x_7_18 + x_10_18 <= 2
 c297: x_18_20 - x_15_18 + x_15_20 <= 1
 c298: x_17_21 + x_15_17 - x_15_21 <= 1
 c299: - x_23_24 + x_23_29 + x_24_29 <= 1
 c300: - x_23_25 + x_23_27 + x_25_27 <= 1
 c301: x_13_14 + x_13_15 - x_14_15 <= 1
 c302: x_11_15 + x_11_16 - x_15_16 <= 1
 c303: x_11_15 + x_11_17 - x_15_17 <= 1
 c304: x_13_15 + x_13_18 - x_15_18 <= 1
 c305: x_11_15 + x_11_20 - x_15_20 <= 1
 c306: x_11_15 + x_11_21 - x_15_21 <= 1
Bounds
 0 <= x_0_1 <= 1
 0 <= x_0_2 <= 1
 0 <= x_0_3 <= 1
 0 <= x_0_5 <= 1
 0 <= x_0_7 <= 1
 0 <= x_0_8 <= 1
 0 <= x_0_9 <= 1
 0 <= x_0_10 <= 1
 0 <= x_0_11 <= 1
 0 <= x_16_17 <= 1
 0 <= x_0_18 <= 1
 0 <= x_16_18 <= 1
 0 <= x_16_19 <= 1
 0 <= x_0_20 <= 1
 0 <= x_16_20 <= 1
 0 <= x_16_21 <= 1
 0 <= x_0_23 <= 1
 0 <= x_0_25 <= 1
 0 <= x_0_26 <= 1
 0 <= x_16_27 <= 1
 0 <= x_0_28 <= 1
 0 <= x_16_30 <= 1
 0 <= x_0_31 <= 1
 0 <= x_16_31 <= 1
 0 <= x_1_3 <= 1
 0 <= x_1_4 <= 1
 0 <= x_1_5 <= 1
 0 <= x_1_7 <= 1
 0 <= x_1_8 <= 1
 0 <= x_1_9 <= 1
 0 <= x_1_10 <= 1
 0 <= x_1_16 <= 1
 0 <= x_17_19 <= 1
 0 <= x_17_20 <= 1
 0 <= x_17_21 <= 1
 0 <= x_1_24 <= 1
 0 <= x_1_25 <= 1
 0 <= x_1_26 <= 1
 0 <= x_17_26 <= 1
 0 <= x_17_28 <= 1
 0 <= x_1_29 <= 1
 0 <= x_17_31 <= 1
 0 <= x_2_3 <= 1
 0 <= x_2_4 <= 1
 0 <= x_2_5 <= 1
 0 <= x_2_6 <= 1
 0 <= x_2_7 <= 1
 0 <= x_2_8 <= 1
 0 <= x_2_10 <= 1
 0 <= x_2_12 <= 1
 0 <= x_2_14 <= 1
 0 <= x_2_15 <= 1
 0 <= x_2_16 <= 1
 0 <= x_2_18 <= 1
 0 <= x_2_19 <= 1
 0 <= x_18_19 <= 1
 0 <= x_2_20 <= 1
 0 <= x_18_20 <= 1
 0 <= x_18_21 <= 1
 0 <= x_18_22 <= 1
 0 <= x_2_24 <= 1
 0 <= x_18_24 <= 1
 0 <= x_18_26 <= 1
 0 <= x_2_28 <= 1
 0 <= x_2_29 <= 1
 0 <= x_18_31 <= 1
 0 <= x_3_5 <= 1
 0 <= x_3_6 <= 1
 0 <= x_3_8 <= 1
 0 <= x_3_10 <= 1
 0 <= x_3_11 <= 1
 0 <= x_3_16 <= 1
 0 <= x_3_19 <= 1
 0 <= x_3_20 <= 1
 0 <= x_19_21 <= 1
 0 <= x_3_22 <= 1
 0 <= x_3_23 <= 1
 0 <= x_19_26 <= 1
 0 <= x_3_29 <= 1
 0 <= x_3_31 <= 1
 0 <= x_4_5 <= 1
 0 <= x_4_6 <= 1
 0 <= x_4_7 <= 1
 0 <= x_4_9 <= 1
 0 <= x_4_10 <= 1
 0 <= x_4_11 <= 1
 0 <= x_4_17 <= 1
 0 <= x_4_20 <= 1
 0 <= x_4_21 <= 1
 0 <= x_20_21 <= 1
 0 <= x_20_22 <= 1
 0 <= x_4_24 <= 1
 0 <= x_4_25 <= 1
 0 <= x_4_28 <= 1
 0 <= x_20_28 <= 1
 0 <= x_20_31 <= 1
 0 <= x_5_6 <= 1
 0 <= x_5_7 <= 1
 0 <= x_5_8 <= 1
 0 <= x_5_9 <= 1
 0 <= x_5_10 <= 1
 0 <= x_5_12 <= 1
 0 <= x_5_13 <= 1
 0 <= x_5_18 <= 1
 0 <= x_5_20 <= 1
 0 <= x_5_21 <= 1
 0 <= x_5_22 <= 1
 0 <= x_5_26 <= 1
 0 <= x_21_26 <= 1
 0 <= x_21_30 <= 1
 0 <= x_6_8 <= 1
 0 <= x_6_10 <= 1
 0 <= x_6_13 <= 1
 0 <= x_6_21 <= 1
 0 <= x_6_22 <= 1
 0 <= x_22_23 <= 1
 0 <= x_22_24 <= 1
 0 <= x_22_25 <= 1
 0 <= x_6_26 <= 1
 0 <= x_22_26 <= 1
 0 <= x_22_27 <= 1
 0 <= x_6_28 <= 1
 0 <= x_22_28 <= 1
 0 <= x_22_29 <= 1
 0 <= x_22_30 <= 1
 0 <= x_6_31 <= 1
 0 <= x_7_8 <= 1
 0 <= x_7_9 <= 1
 0 <= x_7_10 <= 1
 0 <= x_7_11 <= 1
 0 <= x_7_13 <= 1
 0 <= x_7_14 <= 1
 0 <= x_7_16 <= 1
 0 <= x_7_18 <= 1
 0 <= x_7_23 <= 1
 0 <= x_23_24 <= 1
 0 <= x_7_25 <= 1
 0 <= x_23_25 <= 1
 0 <= x_7_27 <= 1
 0 <= x_23_27 <= 1
 0 <= x_23_28 <= 1
 0 <= x_23_29 <= 1
 0 <= x_23_30 <= 1
 0 <= x_7_31 <= 1
 0 <= x_23_31 <= 1
 0 <= x_8_9 <= 1
 0 <= x_8_10 <= 1
 0 <= x_8_14 <= 1
 0 <= x_8_16 <= 1
 0 <= x_8_24 <= 1
 0 <= x_8_25 <= 1
 0 <= x_24_25 <= 1
 0 <= x_8_26 <= 1
 0 <= x_24_27 <= 1
 0 <= x_8_28 <= 1
 0 <= x_24_29 <= 1
 0 <= x_24_30 <= 1
 0 <= x_24_31 <= 1
 0 <= x_9_11 <= 1
 0 <= x_9_14 <= 1
 0 <= x_9_15 <= 1
 0 <= x_9_17 <= 1
 0 <= x_9_18 <= 1
 0 <= x_25_26 <= 1
 0 <= x_25_27 <= 1
 0 <= x_25_28 <= 1
 0 <= x_9_29 <= 1
 0 <= x_25_30 <= 1
 0 <= x_10_11 <= 1
 0 <= x_10_12 <= 1
 0 <= x_10_15 <= 1
 0 <= x_10_16 <= 1
 0 <= x_10_17 <= 1
 0 <= x_10_18 <= 1
 0 <= x_10_22 <= 1
 0 <= x_10_23 <= 1
 0 <= x_10_27 <= 1
 0 <= x_10_28 <= 1
 0 <= x_26_28 <= 1
 0 <= x_10_29 <= 1
 0 <= x_26_29 <= 1
 0 <= x_26_30 <= 1
 0 <= x_10_31 <= 1
 0 <= x_26_31 <= 1
 0 <= x_11_13 <= 1
 0 <= x_11_15 <= 1
 0 <= x_11_16 <= 1
 0 <= x_11_17 <= 1
 0 <= x_11_19 <= 1
 0 <= x_11_20 <= 1
 0 <= x_11_21 <= 1
 0 <= x_11_22 <= 1
 0 <= x_11_23 <= 1
 0 <= x_11_25 <= 1
 0 <= x_11_26 <= 1
 0 <= x_27_28 <= 1
 0 <= x_11_29 <= 1
 0 <= x_11_30 <= 1
 0 <= x_27_30 <= 1
 0 <= x_27_31 <= 1
 0 <= x_12_13 <= 1
 0 <= x_12_16 <= 1
 0 <= x_12_17 <= 1
 0 <= x_12_18 <= 1
 0 <= x_12_21 <= 1
 0 <= x_12_26 <= 1
 0 <= x_12_27 <= 1
 0 <= x_12_28 <= 1
 0 <= x_28_29 <= 1
 0 <= x_28_31 <= 1
 0 <= x_13_14 <= 1
 0 <= x_13_15 <= 1
 0 <= x_13_16 <= 1
 0 <= x_13_17 <= 1
 0 <= x_13_18 <= 1
 0 <= x_13_19 <= 1
 0 <= x_13_20 <= 1
 0 <= x_13_22 <= 1
 0 <= x_13_26 <= 1
 0 <= x_13_27 <= 1
 0 <= x_13_28 <= 1
 0 <= x_13_30 <= 1
 0 <= x_29_30 <= 1
 0 <= x_14_15 <= 1
 0 <= x_14_16 <= 1
 0 <= x_14_17 <= 1
 0 <= x_14_18 <= 1
 0 <= x_14_19 <= 1
 0 <= x_14_20 <= 1
 0 <= x_14_21 <= 1
 0 <= x_14_25 <= 1
 0 <= x_14_31 <= 1
 0 <= x_30_31 <= 1
 0 <= x_15_16 <= 1
 0 <= x_15_17 <= 1
 0 <= x_15_18 <= 1
 0 <= x_15_20 <= 1
 0 <= x_15_21 <= 1
 0 <= x_15_23 <= 1
 0 <= x_15_26 <= 1
 0 <= x_15_28 <= 1
Generals
 x_0_1  x_0_2  x_0_3  x_0_5  x_0_7  x_0_8  x_0_9  x_0_10  x_0_11  x_16_17 
 x_0_18  x_16_18  x_16_19  x_0_20  x_16_20  x_16_21  x_0_23  x_0_25  x_0_26 
 x_16_27  x_0_28  x_16_30  x_0_31  x_16_31  x_1_3  x_1_4  x_1_5  x_1_7  x_1_8 
 x_1_9  x_1_10  x_1_16  x_17_19  x_17_20  x_17_21  x_1_24  x_1_25  x_1_26 
 x_17_26  x_17_28  x_1_29  x_17_31  x_2_3  x_2_4  x_2_5  x_2_6  x_2_7  x_2_8 
 x_2_10  x_2_12  x_2_14  x_2_15  x_2_16  x_2_18  x_2_19  x_18_19  x_2_20 
 x_18_20  x_18_21  x_18_22  x_2_24  x_18_24  x_18_26  x_2_28  x_2_29  x_18_31 
 x_3_5  x_3_6  x_3_8  x_3_10  x_3_11  x_3_16  x_3_19  x_3_20  x_19_21  x_3_22 
 x_3_23  x_19_26  x_3_29  x_3_31  x_4_5  x_4_6  x_4_7  x_4_9  x_4_10  x_4_11 
 x_4_17  x_4_20  x_4_21  x_20_21  x_20_22  x_4_24  x_4_25  x_4_28  x_20_28 
 x_20_31  x_5_6  x_5_7  x_5_8  x_5_9  x_5_10  x_5_12  x_5_13  x_5_18  x_5_20 
 x_5_21  x_5_22  x_5_26  x_21_26  x_21_30  x_6_8  x_6_10  x_6_13  x_6_21 
 x_6_22  x_22_23  x_22_24  x_22_25  x_6_26  x_22_26  x_22_27  x_6_28  x_22_28 
 x_22_29  x_22_30  x_6_31  x_7_8  x_7_9  x_7_10  x_7_11  x_7_13  x_7_14 
 x_7_16  x_7_18  x_7_23  x_23_24  x_7_25  x_23_25  x_7_27  x_23_27  x_23_28 
 x_23_29  x_23_30  x_7_31  x_23_31  x_8_9  x_8_10  x_8_14  x_8_16  x_8_24 
 x_8_25  x_24_25  x_8_26  x_24_27  x_8_28  x_24_29  x_24_30  x_24_31  x_9_11 
 x_9_14  x_9_15  x_9_17  x_9_18  x_25_26  x_25_27  x_25_28  x_9_29  x_25_30 
 x_10_11  x_10_12  x_10_15  x_10_16  x_10_17  x_10_18  x_10_22  x_10_23 
 x_10_27  x_10_28  x_26_28  x_10_29  x_26_29  x_26_30  x_10_31  x_26_31 
 x_11_13  x_11_15  x_11_16  x_11_17  x_11_19  x_11_20  x_11_21  x_11_22 
 x_11_23  x_11_25  x_11_26  x_27_28  x_11_29  x_11_30  x_27_30  x_27_31 
 x_12_13  x_12_16  x_12_17  x_12_18  x_12_21  x_12_26  x_12_27  x_12_28 
 x_28_29  x_28_31  x_13_14  x_13_15  x_13_16  x_13_17  x_13_18  x_13_19 
 x_13_20  x_13_22  x_13_26  x_13_27  x_13_28  x_13_30  x_29_30  x_14_15 
 x_14_16  x_14_17  x_14_18  x_14_19  x_14_20  x_14_21  x_14_25  x_14_31 
 x_30_31  x_15_16  x_15_17  x_15_18  x_15_20  x_15_21  x_15_23  x_15_26 
 x_15_28 
End
